p cnf 7230 15
1794 -2361 0
-1794 2360 -2363 0
-1762 2363 0
-2365 2367 0
1764 -2367 0
-1764 2366 0
2364 -2366 0
-2364 2365 0
2367 -2369 0
-2360 2361 0
-2361 2363 0
2362 -2363 0
1762 -2362 0
-2358 2359 0
2358 -2359 0
